JulietBench/Juliet_Based_Patch_Bench/FFmpeg/CWE-189-Numeric-Errors/CVE_2013_7014_86736f59d6a527d8bc807d09b93f971c0fe0bb07/solveradd_bytes_c_Snippet_patch2.smt2
; benchmark generated from python API
(set-info :status unknown)
(declare-fun R () (_ BitVec 32))
(declare-fun rdi () (_ BitVec 64))
(assert
 (let (($x213 (= (_ bv50 32) R)))
 (let ((?x6 ((_ extract 31 0) rdi)))
 (let ((?x7 ((_ sign_extend 32) ?x6)))
 (let ((?x9 (bvadd ?x7 (_ bv18446744073709551608 64))))
 (let (($x37 (bvuge ?x9 (_ bv0 64))))
 (let (($x36 (bvult ?x9 (_ bv8 64))))
 (let (($x115 (and $x36 $x37 $x213)))
 (let (($x21 (= (_ bv58 32) R)))
 (let (($x105 (bvuge ?x9 (_ bv8 64))))
 (let (($x34 (bvult ?x9 (_ bv16 64))))
 (let (($x43 (and $x34 $x105 $x37 $x21)))
 (let (($x123 (= (_ bv66 32) R)))
 (let (($x122 (bvuge ?x9 (_ bv16 64))))
 (let (($x219 (bvult ?x9 (_ bv24 64))))
 (let (($x132 (and $x219 $x122 $x105 $x37 $x123)))
 (or $x132 $x43 $x115)))))))))))))))))
(check-sat)
